c Standarized MaxSat Instance
c{
c "sha1sum": "c81215ead95f2c4f9d9c2a43760606d4bf5aa2dc",
c "nvars": 91,
c "ncls": 1365,
c "nhards": 0,
c "nhard_len_stats":
c    { "min": 0, "max": 0, "ave": 0.00,
c      "stddev": 0.00 },
c "nsofts": 1365,
c "nsoft_len_stats":
c    { "min": 3, "max": 6, "ave": 5.20,
c      "stddev": 1.33 },
c "nsoft_wts": 1,
c "soft_wt_stats":
c    { "min": 1, "max": 1, "ave": 1.00,
c      "stddev": 0.00 }
c}
c------------------------------------------------------------
p wcnf 91 1365 1366
1 1 2 14 0
1 1 3 15 0
1 2 3 26 0
1 14 15 26 0
1 1 4 16 0
1 2 4 27 0
1 14 16 27 0
1 3 4 37 0
1 15 16 37 0
1 26 27 37 0
1 1 5 17 0
1 2 5 28 0
1 14 17 28 0
1 3 5 38 0
1 15 17 38 0
1 26 28 38 0
1 4 5 47 0
1 16 17 47 0
1 27 28 47 0
1 37 38 47 0
1 1 6 18 0
1 2 6 29 0
1 14 18 29 0
1 3 6 39 0
1 15 18 39 0
1 26 29 39 0
1 4 6 48 0
1 16 18 48 0
1 27 29 48 0
1 37 39 48 0
1 5 6 56 0
1 17 18 56 0
1 28 29 56 0
1 38 39 56 0
1 47 48 56 0
1 1 7 19 0
1 2 7 30 0
1 14 19 30 0
1 3 7 40 0
1 15 19 40 0
1 26 30 40 0
1 4 7 49 0
1 16 19 49 0
1 27 30 49 0
1 37 40 49 0
1 5 7 57 0
1 17 19 57 0
1 28 30 57 0
1 38 40 57 0
1 47 49 57 0
1 6 7 64 0
1 18 19 64 0
1 29 30 64 0
1 39 40 64 0
1 48 49 64 0
1 56 57 64 0
1 1 8 20 0
1 2 8 31 0
1 14 20 31 0
1 3 8 41 0
1 15 20 41 0
1 26 31 41 0
1 4 8 50 0
1 16 20 50 0
1 27 31 50 0
1 37 41 50 0
1 5 8 58 0
1 17 20 58 0
1 28 31 58 0
1 38 41 58 0
1 47 50 58 0
1 6 8 65 0
1 18 20 65 0
1 29 31 65 0
1 39 41 65 0
1 48 50 65 0
1 56 58 65 0
1 7 8 71 0
1 19 20 71 0
1 30 31 71 0
1 40 41 71 0
1 49 50 71 0
1 57 58 71 0
1 64 65 71 0
1 1 9 21 0
1 2 9 32 0
1 14 21 32 0
1 3 9 42 0
1 15 21 42 0
1 26 32 42 0
1 4 9 51 0
1 16 21 51 0
1 27 32 51 0
1 37 42 51 0
1 5 9 59 0
1 17 21 59 0
1 28 32 59 0
1 38 42 59 0
1 47 51 59 0
1 6 9 66 0
1 18 21 66 0
1 29 32 66 0
1 39 42 66 0
1 48 51 66 0
1 56 59 66 0
1 7 9 72 0
1 19 21 72 0
1 30 32 72 0
1 40 42 72 0
1 49 51 72 0
1 57 59 72 0
1 64 66 72 0
1 8 9 77 0
1 20 21 77 0
1 31 32 77 0
1 41 42 77 0
1 50 51 77 0
1 58 59 77 0
1 65 66 77 0
1 71 72 77 0
1 1 10 22 0
1 2 10 33 0
1 14 22 33 0
1 3 10 43 0
1 15 22 43 0
1 26 33 43 0
1 4 10 52 0
1 16 22 52 0
1 27 33 52 0
1 37 43 52 0
1 5 10 60 0
1 17 22 60 0
1 28 33 60 0
1 38 43 60 0
1 47 52 60 0
1 6 10 67 0
1 18 22 67 0
1 29 33 67 0
1 39 43 67 0
1 48 52 67 0
1 56 60 67 0
1 7 10 73 0
1 19 22 73 0
1 30 33 73 0
1 40 43 73 0
1 49 52 73 0
1 57 60 73 0
1 64 67 73 0
1 8 10 78 0
1 20 22 78 0
1 31 33 78 0
1 41 43 78 0
1 50 52 78 0
1 58 60 78 0
1 65 67 78 0
1 71 73 78 0
1 9 10 82 0
1 21 22 82 0
1 32 33 82 0
1 42 43 82 0
1 51 52 82 0
1 59 60 82 0
1 66 67 82 0
1 72 73 82 0
1 77 78 82 0
1 1 11 23 0
1 2 11 34 0
1 14 23 34 0
1 3 11 44 0
1 15 23 44 0
1 26 34 44 0
1 4 11 53 0
1 16 23 53 0
1 27 34 53 0
1 37 44 53 0
1 5 11 61 0
1 17 23 61 0
1 28 34 61 0
1 38 44 61 0
1 47 53 61 0
1 6 11 68 0
1 18 23 68 0
1 29 34 68 0
1 39 44 68 0
1 48 53 68 0
1 56 61 68 0
1 7 11 74 0
1 19 23 74 0
1 30 34 74 0
1 40 44 74 0
1 49 53 74 0
1 57 61 74 0
1 64 68 74 0
1 8 11 79 0
1 20 23 79 0
1 31 34 79 0
1 41 44 79 0
1 50 53 79 0
1 58 61 79 0
1 65 68 79 0
1 71 74 79 0
1 9 11 83 0
1 21 23 83 0
1 32 34 83 0
1 42 44 83 0
1 51 53 83 0
1 59 61 83 0
1 66 68 83 0
1 72 74 83 0
1 77 79 83 0
1 10 11 86 0
1 22 23 86 0
1 33 34 86 0
1 43 44 86 0
1 52 53 86 0
1 60 61 86 0
1 67 68 86 0
1 73 74 86 0
1 78 79 86 0
1 82 83 86 0
1 1 12 24 0
1 2 12 35 0
1 14 24 35 0
1 3 12 45 0
1 15 24 45 0
1 26 35 45 0
1 4 12 54 0
1 16 24 54 0
1 27 35 54 0
1 37 45 54 0
1 5 12 62 0
1 17 24 62 0
1 28 35 62 0
1 38 45 62 0
1 47 54 62 0
1 6 12 69 0
1 18 24 69 0
1 29 35 69 0
1 39 45 69 0
1 48 54 69 0
1 56 62 69 0
1 7 12 75 0
1 19 24 75 0
1 30 35 75 0
1 40 45 75 0
1 49 54 75 0
1 57 62 75 0
1 64 69 75 0
1 8 12 80 0
1 20 24 80 0
1 31 35 80 0
1 41 45 80 0
1 50 54 80 0
1 58 62 80 0
1 65 69 80 0
1 71 75 80 0
1 9 12 84 0
1 21 24 84 0
1 32 35 84 0
1 42 45 84 0
1 51 54 84 0
1 59 62 84 0
1 66 69 84 0
1 72 75 84 0
1 77 80 84 0
1 10 12 87 0
1 22 24 87 0
1 33 35 87 0
1 43 45 87 0
1 52 54 87 0
1 60 62 87 0
1 67 69 87 0
1 73 75 87 0
1 78 80 87 0
1 82 84 87 0
1 11 12 89 0
1 23 24 89 0
1 34 35 89 0
1 44 45 89 0
1 53 54 89 0
1 61 62 89 0
1 68 69 89 0
1 74 75 89 0
1 79 80 89 0
1 83 84 89 0
1 86 87 89 0
1 1 13 25 0
1 2 13 36 0
1 14 25 36 0
1 3 13 46 0
1 15 25 46 0
1 26 36 46 0
1 4 13 55 0
1 16 25 55 0
1 27 36 55 0
1 37 46 55 0
1 5 13 63 0
1 17 25 63 0
1 28 36 63 0
1 38 46 63 0
1 47 55 63 0
1 6 13 70 0
1 18 25 70 0
1 29 36 70 0
1 39 46 70 0
1 48 55 70 0
1 56 63 70 0
1 7 13 76 0
1 19 25 76 0
1 30 36 76 0
1 40 46 76 0
1 49 55 76 0
1 57 63 76 0
1 64 70 76 0
1 8 13 81 0
1 20 25 81 0
1 31 36 81 0
1 41 46 81 0
1 50 55 81 0
1 58 63 81 0
1 65 70 81 0
1 71 76 81 0
1 9 13 85 0
1 21 25 85 0
1 32 36 85 0
1 42 46 85 0
1 51 55 85 0
1 59 63 85 0
1 66 70 85 0
1 72 76 85 0
1 77 81 85 0
1 10 13 88 0
1 22 25 88 0
1 33 36 88 0
1 43 46 88 0
1 52 55 88 0
1 60 63 88 0
1 67 70 88 0
1 73 76 88 0
1 78 81 88 0
1 82 85 88 0
1 11 13 90 0
1 23 25 90 0
1 34 36 90 0
1 44 46 90 0
1 53 55 90 0
1 61 63 90 0
1 68 70 90 0
1 74 76 90 0
1 79 81 90 0
1 83 85 90 0
1 86 88 90 0
1 12 13 91 0
1 24 25 91 0
1 35 36 91 0
1 45 46 91 0
1 54 55 91 0
1 62 63 91 0
1 69 70 91 0
1 75 76 91 0
1 80 81 91 0
1 84 85 91 0
1 87 88 91 0
1 89 90 91 0
1 -1 -2 -3 -14 -15 -26 0
1 -1 -2 -4 -14 -16 -27 0
1 -1 -3 -4 -15 -16 -37 0
1 -2 -3 -4 -26 -27 -37 0
1 -14 -15 -16 -26 -27 -37 0
1 -1 -2 -5 -14 -17 -28 0
1 -1 -3 -5 -15 -17 -38 0
1 -2 -3 -5 -26 -28 -38 0
1 -14 -15 -17 -26 -28 -38 0
1 -1 -4 -5 -16 -17 -47 0
1 -2 -4 -5 -27 -28 -47 0
1 -14 -16 -17 -27 -28 -47 0
1 -3 -4 -5 -37 -38 -47 0
1 -15 -16 -17 -37 -38 -47 0
1 -26 -27 -28 -37 -38 -47 0
1 -1 -2 -6 -14 -18 -29 0
1 -1 -3 -6 -15 -18 -39 0
1 -2 -3 -6 -26 -29 -39 0
1 -14 -15 -18 -26 -29 -39 0
1 -1 -4 -6 -16 -18 -48 0
1 -2 -4 -6 -27 -29 -48 0
1 -14 -16 -18 -27 -29 -48 0
1 -3 -4 -6 -37 -39 -48 0
1 -15 -16 -18 -37 -39 -48 0
1 -26 -27 -29 -37 -39 -48 0
1 -1 -5 -6 -17 -18 -56 0
1 -2 -5 -6 -28 -29 -56 0
1 -14 -17 -18 -28 -29 -56 0
1 -3 -5 -6 -38 -39 -56 0
1 -15 -17 -18 -38 -39 -56 0
1 -26 -28 -29 -38 -39 -56 0
1 -4 -5 -6 -47 -48 -56 0
1 -16 -17 -18 -47 -48 -56 0
1 -27 -28 -29 -47 -48 -56 0
1 -37 -38 -39 -47 -48 -56 0
1 -1 -2 -7 -14 -19 -30 0
1 -1 -3 -7 -15 -19 -40 0
1 -2 -3 -7 -26 -30 -40 0
1 -14 -15 -19 -26 -30 -40 0
1 -1 -4 -7 -16 -19 -49 0
1 -2 -4 -7 -27 -30 -49 0
1 -14 -16 -19 -27 -30 -49 0
1 -3 -4 -7 -37 -40 -49 0
1 -15 -16 -19 -37 -40 -49 0
1 -26 -27 -30 -37 -40 -49 0
1 -1 -5 -7 -17 -19 -57 0
1 -2 -5 -7 -28 -30 -57 0
1 -14 -17 -19 -28 -30 -57 0
1 -3 -5 -7 -38 -40 -57 0
1 -15 -17 -19 -38 -40 -57 0
1 -26 -28 -30 -38 -40 -57 0
1 -4 -5 -7 -47 -49 -57 0
1 -16 -17 -19 -47 -49 -57 0
1 -27 -28 -30 -47 -49 -57 0
1 -37 -38 -40 -47 -49 -57 0
1 -1 -6 -7 -18 -19 -64 0
1 -2 -6 -7 -29 -30 -64 0
1 -14 -18 -19 -29 -30 -64 0
1 -3 -6 -7 -39 -40 -64 0
1 -15 -18 -19 -39 -40 -64 0
1 -26 -29 -30 -39 -40 -64 0
1 -4 -6 -7 -48 -49 -64 0
1 -16 -18 -19 -48 -49 -64 0
1 -27 -29 -30 -48 -49 -64 0
1 -37 -39 -40 -48 -49 -64 0
1 -5 -6 -7 -56 -57 -64 0
1 -17 -18 -19 -56 -57 -64 0
1 -28 -29 -30 -56 -57 -64 0
1 -38 -39 -40 -56 -57 -64 0
1 -47 -48 -49 -56 -57 -64 0
1 -1 -2 -8 -14 -20 -31 0
1 -1 -3 -8 -15 -20 -41 0
1 -2 -3 -8 -26 -31 -41 0
1 -14 -15 -20 -26 -31 -41 0
1 -1 -4 -8 -16 -20 -50 0
1 -2 -4 -8 -27 -31 -50 0
1 -14 -16 -20 -27 -31 -50 0
1 -3 -4 -8 -37 -41 -50 0
1 -15 -16 -20 -37 -41 -50 0
1 -26 -27 -31 -37 -41 -50 0
1 -1 -5 -8 -17 -20 -58 0
1 -2 -5 -8 -28 -31 -58 0
1 -14 -17 -20 -28 -31 -58 0
1 -3 -5 -8 -38 -41 -58 0
1 -15 -17 -20 -38 -41 -58 0
1 -26 -28 -31 -38 -41 -58 0
1 -4 -5 -8 -47 -50 -58 0
1 -16 -17 -20 -47 -50 -58 0
1 -27 -28 -31 -47 -50 -58 0
1 -37 -38 -41 -47 -50 -58 0
1 -1 -6 -8 -18 -20 -65 0
1 -2 -6 -8 -29 -31 -65 0
1 -14 -18 -20 -29 -31 -65 0
1 -3 -6 -8 -39 -41 -65 0
1 -15 -18 -20 -39 -41 -65 0
1 -26 -29 -31 -39 -41 -65 0
1 -4 -6 -8 -48 -50 -65 0
1 -16 -18 -20 -48 -50 -65 0
1 -27 -29 -31 -48 -50 -65 0
1 -37 -39 -41 -48 -50 -65 0
1 -5 -6 -8 -56 -58 -65 0
1 -17 -18 -20 -56 -58 -65 0
1 -28 -29 -31 -56 -58 -65 0
1 -38 -39 -41 -56 -58 -65 0
1 -47 -48 -50 -56 -58 -65 0
1 -1 -7 -8 -19 -20 -71 0
1 -2 -7 -8 -30 -31 -71 0
1 -14 -19 -20 -30 -31 -71 0
1 -3 -7 -8 -40 -41 -71 0
1 -15 -19 -20 -40 -41 -71 0
1 -26 -30 -31 -40 -41 -71 0
1 -4 -7 -8 -49 -50 -71 0
1 -16 -19 -20 -49 -50 -71 0
1 -27 -30 -31 -49 -50 -71 0
1 -37 -40 -41 -49 -50 -71 0
1 -5 -7 -8 -57 -58 -71 0
1 -17 -19 -20 -57 -58 -71 0
1 -28 -30 -31 -57 -58 -71 0
1 -38 -40 -41 -57 -58 -71 0
1 -47 -49 -50 -57 -58 -71 0
1 -6 -7 -8 -64 -65 -71 0
1 -18 -19 -20 -64 -65 -71 0
1 -29 -30 -31 -64 -65 -71 0
1 -39 -40 -41 -64 -65 -71 0
1 -48 -49 -50 -64 -65 -71 0
1 -56 -57 -58 -64 -65 -71 0
1 -1 -2 -9 -14 -21 -32 0
1 -1 -3 -9 -15 -21 -42 0
1 -2 -3 -9 -26 -32 -42 0
1 -14 -15 -21 -26 -32 -42 0
1 -1 -4 -9 -16 -21 -51 0
1 -2 -4 -9 -27 -32 -51 0
1 -14 -16 -21 -27 -32 -51 0
1 -3 -4 -9 -37 -42 -51 0
1 -15 -16 -21 -37 -42 -51 0
1 -26 -27 -32 -37 -42 -51 0
1 -1 -5 -9 -17 -21 -59 0
1 -2 -5 -9 -28 -32 -59 0
1 -14 -17 -21 -28 -32 -59 0
1 -3 -5 -9 -38 -42 -59 0
1 -15 -17 -21 -38 -42 -59 0
1 -26 -28 -32 -38 -42 -59 0
1 -4 -5 -9 -47 -51 -59 0
1 -16 -17 -21 -47 -51 -59 0
1 -27 -28 -32 -47 -51 -59 0
1 -37 -38 -42 -47 -51 -59 0
1 -1 -6 -9 -18 -21 -66 0
1 -2 -6 -9 -29 -32 -66 0
1 -14 -18 -21 -29 -32 -66 0
1 -3 -6 -9 -39 -42 -66 0
1 -15 -18 -21 -39 -42 -66 0
1 -26 -29 -32 -39 -42 -66 0
1 -4 -6 -9 -48 -51 -66 0
1 -16 -18 -21 -48 -51 -66 0
1 -27 -29 -32 -48 -51 -66 0
1 -37 -39 -42 -48 -51 -66 0
1 -5 -6 -9 -56 -59 -66 0
1 -17 -18 -21 -56 -59 -66 0
1 -28 -29 -32 -56 -59 -66 0
1 -38 -39 -42 -56 -59 -66 0
1 -47 -48 -51 -56 -59 -66 0
1 -1 -7 -9 -19 -21 -72 0
1 -2 -7 -9 -30 -32 -72 0
1 -14 -19 -21 -30 -32 -72 0
1 -3 -7 -9 -40 -42 -72 0
1 -15 -19 -21 -40 -42 -72 0
1 -26 -30 -32 -40 -42 -72 0
1 -4 -7 -9 -49 -51 -72 0
1 -16 -19 -21 -49 -51 -72 0
1 -27 -30 -32 -49 -51 -72 0
1 -37 -40 -42 -49 -51 -72 0
1 -5 -7 -9 -57 -59 -72 0
1 -17 -19 -21 -57 -59 -72 0
1 -28 -30 -32 -57 -59 -72 0
1 -38 -40 -42 -57 -59 -72 0
1 -47 -49 -51 -57 -59 -72 0
1 -6 -7 -9 -64 -66 -72 0
1 -18 -19 -21 -64 -66 -72 0
1 -29 -30 -32 -64 -66 -72 0
1 -39 -40 -42 -64 -66 -72 0
1 -48 -49 -51 -64 -66 -72 0
1 -56 -57 -59 -64 -66 -72 0
1 -1 -8 -9 -20 -21 -77 0
1 -2 -8 -9 -31 -32 -77 0
1 -14 -20 -21 -31 -32 -77 0
1 -3 -8 -9 -41 -42 -77 0
1 -15 -20 -21 -41 -42 -77 0
1 -26 -31 -32 -41 -42 -77 0
1 -4 -8 -9 -50 -51 -77 0
1 -16 -20 -21 -50 -51 -77 0
1 -27 -31 -32 -50 -51 -77 0
1 -37 -41 -42 -50 -51 -77 0
1 -5 -8 -9 -58 -59 -77 0
1 -17 -20 -21 -58 -59 -77 0
1 -28 -31 -32 -58 -59 -77 0
1 -38 -41 -42 -58 -59 -77 0
1 -47 -50 -51 -58 -59 -77 0
1 -6 -8 -9 -65 -66 -77 0
1 -18 -20 -21 -65 -66 -77 0
1 -29 -31 -32 -65 -66 -77 0
1 -39 -41 -42 -65 -66 -77 0
1 -48 -50 -51 -65 -66 -77 0
1 -56 -58 -59 -65 -66 -77 0
1 -7 -8 -9 -71 -72 -77 0
1 -19 -20 -21 -71 -72 -77 0
1 -30 -31 -32 -71 -72 -77 0
1 -40 -41 -42 -71 -72 -77 0
1 -49 -50 -51 -71 -72 -77 0
1 -57 -58 -59 -71 -72 -77 0
1 -64 -65 -66 -71 -72 -77 0
1 -1 -2 -10 -14 -22 -33 0
1 -1 -3 -10 -15 -22 -43 0
1 -2 -3 -10 -26 -33 -43 0
1 -14 -15 -22 -26 -33 -43 0
1 -1 -4 -10 -16 -22 -52 0
1 -2 -4 -10 -27 -33 -52 0
1 -14 -16 -22 -27 -33 -52 0
1 -3 -4 -10 -37 -43 -52 0
1 -15 -16 -22 -37 -43 -52 0
1 -26 -27 -33 -37 -43 -52 0
1 -1 -5 -10 -17 -22 -60 0
1 -2 -5 -10 -28 -33 -60 0
1 -14 -17 -22 -28 -33 -60 0
1 -3 -5 -10 -38 -43 -60 0
1 -15 -17 -22 -38 -43 -60 0
1 -26 -28 -33 -38 -43 -60 0
1 -4 -5 -10 -47 -52 -60 0
1 -16 -17 -22 -47 -52 -60 0
1 -27 -28 -33 -47 -52 -60 0
1 -37 -38 -43 -47 -52 -60 0
1 -1 -6 -10 -18 -22 -67 0
1 -2 -6 -10 -29 -33 -67 0
1 -14 -18 -22 -29 -33 -67 0
1 -3 -6 -10 -39 -43 -67 0
1 -15 -18 -22 -39 -43 -67 0
1 -26 -29 -33 -39 -43 -67 0
1 -4 -6 -10 -48 -52 -67 0
1 -16 -18 -22 -48 -52 -67 0
1 -27 -29 -33 -48 -52 -67 0
1 -37 -39 -43 -48 -52 -67 0
1 -5 -6 -10 -56 -60 -67 0
1 -17 -18 -22 -56 -60 -67 0
1 -28 -29 -33 -56 -60 -67 0
1 -38 -39 -43 -56 -60 -67 0
1 -47 -48 -52 -56 -60 -67 0
1 -1 -7 -10 -19 -22 -73 0
1 -2 -7 -10 -30 -33 -73 0
1 -14 -19 -22 -30 -33 -73 0
1 -3 -7 -10 -40 -43 -73 0
1 -15 -19 -22 -40 -43 -73 0
1 -26 -30 -33 -40 -43 -73 0
1 -4 -7 -10 -49 -52 -73 0
1 -16 -19 -22 -49 -52 -73 0
1 -27 -30 -33 -49 -52 -73 0
1 -37 -40 -43 -49 -52 -73 0
1 -5 -7 -10 -57 -60 -73 0
1 -17 -19 -22 -57 -60 -73 0
1 -28 -30 -33 -57 -60 -73 0
1 -38 -40 -43 -57 -60 -73 0
1 -47 -49 -52 -57 -60 -73 0
1 -6 -7 -10 -64 -67 -73 0
1 -18 -19 -22 -64 -67 -73 0
1 -29 -30 -33 -64 -67 -73 0
1 -39 -40 -43 -64 -67 -73 0
1 -48 -49 -52 -64 -67 -73 0
1 -56 -57 -60 -64 -67 -73 0
1 -1 -8 -10 -20 -22 -78 0
1 -2 -8 -10 -31 -33 -78 0
1 -14 -20 -22 -31 -33 -78 0
1 -3 -8 -10 -41 -43 -78 0
1 -15 -20 -22 -41 -43 -78 0
1 -26 -31 -33 -41 -43 -78 0
1 -4 -8 -10 -50 -52 -78 0
1 -16 -20 -22 -50 -52 -78 0
1 -27 -31 -33 -50 -52 -78 0
1 -37 -41 -43 -50 -52 -78 0
1 -5 -8 -10 -58 -60 -78 0
1 -17 -20 -22 -58 -60 -78 0
1 -28 -31 -33 -58 -60 -78 0
1 -38 -41 -43 -58 -60 -78 0
1 -47 -50 -52 -58 -60 -78 0
1 -6 -8 -10 -65 -67 -78 0
1 -18 -20 -22 -65 -67 -78 0
1 -29 -31 -33 -65 -67 -78 0
1 -39 -41 -43 -65 -67 -78 0
1 -48 -50 -52 -65 -67 -78 0
1 -56 -58 -60 -65 -67 -78 0
1 -7 -8 -10 -71 -73 -78 0
1 -19 -20 -22 -71 -73 -78 0
1 -30 -31 -33 -71 -73 -78 0
1 -40 -41 -43 -71 -73 -78 0
1 -49 -50 -52 -71 -73 -78 0
1 -57 -58 -60 -71 -73 -78 0
1 -64 -65 -67 -71 -73 -78 0
1 -1 -9 -10 -21 -22 -82 0
1 -2 -9 -10 -32 -33 -82 0
1 -14 -21 -22 -32 -33 -82 0
1 -3 -9 -10 -42 -43 -82 0
1 -15 -21 -22 -42 -43 -82 0
1 -26 -32 -33 -42 -43 -82 0
1 -4 -9 -10 -51 -52 -82 0
1 -16 -21 -22 -51 -52 -82 0
1 -27 -32 -33 -51 -52 -82 0
1 -37 -42 -43 -51 -52 -82 0
1 -5 -9 -10 -59 -60 -82 0
1 -17 -21 -22 -59 -60 -82 0
1 -28 -32 -33 -59 -60 -82 0
1 -38 -42 -43 -59 -60 -82 0
1 -47 -51 -52 -59 -60 -82 0
1 -6 -9 -10 -66 -67 -82 0
1 -18 -21 -22 -66 -67 -82 0
1 -29 -32 -33 -66 -67 -82 0
1 -39 -42 -43 -66 -67 -82 0
1 -48 -51 -52 -66 -67 -82 0
1 -56 -59 -60 -66 -67 -82 0
1 -7 -9 -10 -72 -73 -82 0
1 -19 -21 -22 -72 -73 -82 0
1 -30 -32 -33 -72 -73 -82 0
1 -40 -42 -43 -72 -73 -82 0
1 -49 -51 -52 -72 -73 -82 0
1 -57 -59 -60 -72 -73 -82 0
1 -64 -66 -67 -72 -73 -82 0
1 -8 -9 -10 -77 -78 -82 0
1 -20 -21 -22 -77 -78 -82 0
1 -31 -32 -33 -77 -78 -82 0
1 -41 -42 -43 -77 -78 -82 0
1 -50 -51 -52 -77 -78 -82 0
1 -58 -59 -60 -77 -78 -82 0
1 -65 -66 -67 -77 -78 -82 0
1 -71 -72 -73 -77 -78 -82 0
1 -1 -2 -11 -14 -23 -34 0
1 -1 -3 -11 -15 -23 -44 0
1 -2 -3 -11 -26 -34 -44 0
1 -14 -15 -23 -26 -34 -44 0
1 -1 -4 -11 -16 -23 -53 0
1 -2 -4 -11 -27 -34 -53 0
1 -14 -16 -23 -27 -34 -53 0
1 -3 -4 -11 -37 -44 -53 0
1 -15 -16 -23 -37 -44 -53 0
1 -26 -27 -34 -37 -44 -53 0
1 -1 -5 -11 -17 -23 -61 0
1 -2 -5 -11 -28 -34 -61 0
1 -14 -17 -23 -28 -34 -61 0
1 -3 -5 -11 -38 -44 -61 0
1 -15 -17 -23 -38 -44 -61 0
1 -26 -28 -34 -38 -44 -61 0
1 -4 -5 -11 -47 -53 -61 0
1 -16 -17 -23 -47 -53 -61 0
1 -27 -28 -34 -47 -53 -61 0
1 -37 -38 -44 -47 -53 -61 0
1 -1 -6 -11 -18 -23 -68 0
1 -2 -6 -11 -29 -34 -68 0
1 -14 -18 -23 -29 -34 -68 0
1 -3 -6 -11 -39 -44 -68 0
1 -15 -18 -23 -39 -44 -68 0
1 -26 -29 -34 -39 -44 -68 0
1 -4 -6 -11 -48 -53 -68 0
1 -16 -18 -23 -48 -53 -68 0
1 -27 -29 -34 -48 -53 -68 0
1 -37 -39 -44 -48 -53 -68 0
1 -5 -6 -11 -56 -61 -68 0
1 -17 -18 -23 -56 -61 -68 0
1 -28 -29 -34 -56 -61 -68 0
1 -38 -39 -44 -56 -61 -68 0
1 -47 -48 -53 -56 -61 -68 0
1 -1 -7 -11 -19 -23 -74 0
1 -2 -7 -11 -30 -34 -74 0
1 -14 -19 -23 -30 -34 -74 0
1 -3 -7 -11 -40 -44 -74 0
1 -15 -19 -23 -40 -44 -74 0
1 -26 -30 -34 -40 -44 -74 0
1 -4 -7 -11 -49 -53 -74 0
1 -16 -19 -23 -49 -53 -74 0
1 -27 -30 -34 -49 -53 -74 0
1 -37 -40 -44 -49 -53 -74 0
1 -5 -7 -11 -57 -61 -74 0
1 -17 -19 -23 -57 -61 -74 0
1 -28 -30 -34 -57 -61 -74 0
1 -38 -40 -44 -57 -61 -74 0
1 -47 -49 -53 -57 -61 -74 0
1 -6 -7 -11 -64 -68 -74 0
1 -18 -19 -23 -64 -68 -74 0
1 -29 -30 -34 -64 -68 -74 0
1 -39 -40 -44 -64 -68 -74 0
1 -48 -49 -53 -64 -68 -74 0
1 -56 -57 -61 -64 -68 -74 0
1 -1 -8 -11 -20 -23 -79 0
1 -2 -8 -11 -31 -34 -79 0
1 -14 -20 -23 -31 -34 -79 0
1 -3 -8 -11 -41 -44 -79 0
1 -15 -20 -23 -41 -44 -79 0
1 -26 -31 -34 -41 -44 -79 0
1 -4 -8 -11 -50 -53 -79 0
1 -16 -20 -23 -50 -53 -79 0
1 -27 -31 -34 -50 -53 -79 0
1 -37 -41 -44 -50 -53 -79 0
1 -5 -8 -11 -58 -61 -79 0
1 -17 -20 -23 -58 -61 -79 0
1 -28 -31 -34 -58 -61 -79 0
1 -38 -41 -44 -58 -61 -79 0
1 -47 -50 -53 -58 -61 -79 0
1 -6 -8 -11 -65 -68 -79 0
1 -18 -20 -23 -65 -68 -79 0
1 -29 -31 -34 -65 -68 -79 0
1 -39 -41 -44 -65 -68 -79 0
1 -48 -50 -53 -65 -68 -79 0
1 -56 -58 -61 -65 -68 -79 0
1 -7 -8 -11 -71 -74 -79 0
1 -19 -20 -23 -71 -74 -79 0
1 -30 -31 -34 -71 -74 -79 0
1 -40 -41 -44 -71 -74 -79 0
1 -49 -50 -53 -71 -74 -79 0
1 -57 -58 -61 -71 -74 -79 0
1 -64 -65 -68 -71 -74 -79 0
1 -1 -9 -11 -21 -23 -83 0
1 -2 -9 -11 -32 -34 -83 0
1 -14 -21 -23 -32 -34 -83 0
1 -3 -9 -11 -42 -44 -83 0
1 -15 -21 -23 -42 -44 -83 0
1 -26 -32 -34 -42 -44 -83 0
1 -4 -9 -11 -51 -53 -83 0
1 -16 -21 -23 -51 -53 -83 0
1 -27 -32 -34 -51 -53 -83 0
1 -37 -42 -44 -51 -53 -83 0
1 -5 -9 -11 -59 -61 -83 0
1 -17 -21 -23 -59 -61 -83 0
1 -28 -32 -34 -59 -61 -83 0
1 -38 -42 -44 -59 -61 -83 0
1 -47 -51 -53 -59 -61 -83 0
1 -6 -9 -11 -66 -68 -83 0
1 -18 -21 -23 -66 -68 -83 0
1 -29 -32 -34 -66 -68 -83 0
1 -39 -42 -44 -66 -68 -83 0
1 -48 -51 -53 -66 -68 -83 0
1 -56 -59 -61 -66 -68 -83 0
1 -7 -9 -11 -72 -74 -83 0
1 -19 -21 -23 -72 -74 -83 0
1 -30 -32 -34 -72 -74 -83 0
1 -40 -42 -44 -72 -74 -83 0
1 -49 -51 -53 -72 -74 -83 0
1 -57 -59 -61 -72 -74 -83 0
1 -64 -66 -68 -72 -74 -83 0
1 -8 -9 -11 -77 -79 -83 0
1 -20 -21 -23 -77 -79 -83 0
1 -31 -32 -34 -77 -79 -83 0
1 -41 -42 -44 -77 -79 -83 0
1 -50 -51 -53 -77 -79 -83 0
1 -58 -59 -61 -77 -79 -83 0
1 -65 -66 -68 -77 -79 -83 0
1 -71 -72 -74 -77 -79 -83 0
1 -1 -10 -11 -22 -23 -86 0
1 -2 -10 -11 -33 -34 -86 0
1 -14 -22 -23 -33 -34 -86 0
1 -3 -10 -11 -43 -44 -86 0
1 -15 -22 -23 -43 -44 -86 0
1 -26 -33 -34 -43 -44 -86 0
1 -4 -10 -11 -52 -53 -86 0
1 -16 -22 -23 -52 -53 -86 0
1 -27 -33 -34 -52 -53 -86 0
1 -37 -43 -44 -52 -53 -86 0
1 -5 -10 -11 -60 -61 -86 0
1 -17 -22 -23 -60 -61 -86 0
1 -28 -33 -34 -60 -61 -86 0
1 -38 -43 -44 -60 -61 -86 0
1 -47 -52 -53 -60 -61 -86 0
1 -6 -10 -11 -67 -68 -86 0
1 -18 -22 -23 -67 -68 -86 0
1 -29 -33 -34 -67 -68 -86 0
1 -39 -43 -44 -67 -68 -86 0
1 -48 -52 -53 -67 -68 -86 0
1 -56 -60 -61 -67 -68 -86 0
1 -7 -10 -11 -73 -74 -86 0
1 -19 -22 -23 -73 -74 -86 0
1 -30 -33 -34 -73 -74 -86 0
1 -40 -43 -44 -73 -74 -86 0
1 -49 -52 -53 -73 -74 -86 0
1 -57 -60 -61 -73 -74 -86 0
1 -64 -67 -68 -73 -74 -86 0
1 -8 -10 -11 -78 -79 -86 0
1 -20 -22 -23 -78 -79 -86 0
1 -31 -33 -34 -78 -79 -86 0
1 -41 -43 -44 -78 -79 -86 0
1 -50 -52 -53 -78 -79 -86 0
1 -58 -60 -61 -78 -79 -86 0
1 -65 -67 -68 -78 -79 -86 0
1 -71 -73 -74 -78 -79 -86 0
1 -9 -10 -11 -82 -83 -86 0
1 -21 -22 -23 -82 -83 -86 0
1 -32 -33 -34 -82 -83 -86 0
1 -42 -43 -44 -82 -83 -86 0
1 -51 -52 -53 -82 -83 -86 0
1 -59 -60 -61 -82 -83 -86 0
1 -66 -67 -68 -82 -83 -86 0
1 -72 -73 -74 -82 -83 -86 0
1 -77 -78 -79 -82 -83 -86 0
1 -1 -2 -12 -14 -24 -35 0
1 -1 -3 -12 -15 -24 -45 0
1 -2 -3 -12 -26 -35 -45 0
1 -14 -15 -24 -26 -35 -45 0
1 -1 -4 -12 -16 -24 -54 0
1 -2 -4 -12 -27 -35 -54 0
1 -14 -16 -24 -27 -35 -54 0
1 -3 -4 -12 -37 -45 -54 0
1 -15 -16 -24 -37 -45 -54 0
1 -26 -27 -35 -37 -45 -54 0
1 -1 -5 -12 -17 -24 -62 0
1 -2 -5 -12 -28 -35 -62 0
1 -14 -17 -24 -28 -35 -62 0
1 -3 -5 -12 -38 -45 -62 0
1 -15 -17 -24 -38 -45 -62 0
1 -26 -28 -35 -38 -45 -62 0
1 -4 -5 -12 -47 -54 -62 0
1 -16 -17 -24 -47 -54 -62 0
1 -27 -28 -35 -47 -54 -62 0
1 -37 -38 -45 -47 -54 -62 0
1 -1 -6 -12 -18 -24 -69 0
1 -2 -6 -12 -29 -35 -69 0
1 -14 -18 -24 -29 -35 -69 0
1 -3 -6 -12 -39 -45 -69 0
1 -15 -18 -24 -39 -45 -69 0
1 -26 -29 -35 -39 -45 -69 0
1 -4 -6 -12 -48 -54 -69 0
1 -16 -18 -24 -48 -54 -69 0
1 -27 -29 -35 -48 -54 -69 0
1 -37 -39 -45 -48 -54 -69 0
1 -5 -6 -12 -56 -62 -69 0
1 -17 -18 -24 -56 -62 -69 0
1 -28 -29 -35 -56 -62 -69 0
1 -38 -39 -45 -56 -62 -69 0
1 -47 -48 -54 -56 -62 -69 0
1 -1 -7 -12 -19 -24 -75 0
1 -2 -7 -12 -30 -35 -75 0
1 -14 -19 -24 -30 -35 -75 0
1 -3 -7 -12 -40 -45 -75 0
1 -15 -19 -24 -40 -45 -75 0
1 -26 -30 -35 -40 -45 -75 0
1 -4 -7 -12 -49 -54 -75 0
1 -16 -19 -24 -49 -54 -75 0
1 -27 -30 -35 -49 -54 -75 0
1 -37 -40 -45 -49 -54 -75 0
1 -5 -7 -12 -57 -62 -75 0
1 -17 -19 -24 -57 -62 -75 0
1 -28 -30 -35 -57 -62 -75 0
1 -38 -40 -45 -57 -62 -75 0
1 -47 -49 -54 -57 -62 -75 0
1 -6 -7 -12 -64 -69 -75 0
1 -18 -19 -24 -64 -69 -75 0
1 -29 -30 -35 -64 -69 -75 0
1 -39 -40 -45 -64 -69 -75 0
1 -48 -49 -54 -64 -69 -75 0
1 -56 -57 -62 -64 -69 -75 0
1 -1 -8 -12 -20 -24 -80 0
1 -2 -8 -12 -31 -35 -80 0
1 -14 -20 -24 -31 -35 -80 0
1 -3 -8 -12 -41 -45 -80 0
1 -15 -20 -24 -41 -45 -80 0
1 -26 -31 -35 -41 -45 -80 0
1 -4 -8 -12 -50 -54 -80 0
1 -16 -20 -24 -50 -54 -80 0
1 -27 -31 -35 -50 -54 -80 0
1 -37 -41 -45 -50 -54 -80 0
1 -5 -8 -12 -58 -62 -80 0
1 -17 -20 -24 -58 -62 -80 0
1 -28 -31 -35 -58 -62 -80 0
1 -38 -41 -45 -58 -62 -80 0
1 -47 -50 -54 -58 -62 -80 0
1 -6 -8 -12 -65 -69 -80 0
1 -18 -20 -24 -65 -69 -80 0
1 -29 -31 -35 -65 -69 -80 0
1 -39 -41 -45 -65 -69 -80 0
1 -48 -50 -54 -65 -69 -80 0
1 -56 -58 -62 -65 -69 -80 0
1 -7 -8 -12 -71 -75 -80 0
1 -19 -20 -24 -71 -75 -80 0
1 -30 -31 -35 -71 -75 -80 0
1 -40 -41 -45 -71 -75 -80 0
1 -49 -50 -54 -71 -75 -80 0
1 -57 -58 -62 -71 -75 -80 0
1 -64 -65 -69 -71 -75 -80 0
1 -1 -9 -12 -21 -24 -84 0
1 -2 -9 -12 -32 -35 -84 0
1 -14 -21 -24 -32 -35 -84 0
1 -3 -9 -12 -42 -45 -84 0
1 -15 -21 -24 -42 -45 -84 0
1 -26 -32 -35 -42 -45 -84 0
1 -4 -9 -12 -51 -54 -84 0
1 -16 -21 -24 -51 -54 -84 0
1 -27 -32 -35 -51 -54 -84 0
1 -37 -42 -45 -51 -54 -84 0
1 -5 -9 -12 -59 -62 -84 0
1 -17 -21 -24 -59 -62 -84 0
1 -28 -32 -35 -59 -62 -84 0
1 -38 -42 -45 -59 -62 -84 0
1 -47 -51 -54 -59 -62 -84 0
1 -6 -9 -12 -66 -69 -84 0
1 -18 -21 -24 -66 -69 -84 0
1 -29 -32 -35 -66 -69 -84 0
1 -39 -42 -45 -66 -69 -84 0
1 -48 -51 -54 -66 -69 -84 0
1 -56 -59 -62 -66 -69 -84 0
1 -7 -9 -12 -72 -75 -84 0
1 -19 -21 -24 -72 -75 -84 0
1 -30 -32 -35 -72 -75 -84 0
1 -40 -42 -45 -72 -75 -84 0
1 -49 -51 -54 -72 -75 -84 0
1 -57 -59 -62 -72 -75 -84 0
1 -64 -66 -69 -72 -75 -84 0
1 -8 -9 -12 -77 -80 -84 0
1 -20 -21 -24 -77 -80 -84 0
1 -31 -32 -35 -77 -80 -84 0
1 -41 -42 -45 -77 -80 -84 0
1 -50 -51 -54 -77 -80 -84 0
1 -58 -59 -62 -77 -80 -84 0
1 -65 -66 -69 -77 -80 -84 0
1 -71 -72 -75 -77 -80 -84 0
1 -1 -10 -12 -22 -24 -87 0
1 -2 -10 -12 -33 -35 -87 0
1 -14 -22 -24 -33 -35 -87 0
1 -3 -10 -12 -43 -45 -87 0
1 -15 -22 -24 -43 -45 -87 0
1 -26 -33 -35 -43 -45 -87 0
1 -4 -10 -12 -52 -54 -87 0
1 -16 -22 -24 -52 -54 -87 0
1 -27 -33 -35 -52 -54 -87 0
1 -37 -43 -45 -52 -54 -87 0
1 -5 -10 -12 -60 -62 -87 0
1 -17 -22 -24 -60 -62 -87 0
1 -28 -33 -35 -60 -62 -87 0
1 -38 -43 -45 -60 -62 -87 0
1 -47 -52 -54 -60 -62 -87 0
1 -6 -10 -12 -67 -69 -87 0
1 -18 -22 -24 -67 -69 -87 0
1 -29 -33 -35 -67 -69 -87 0
1 -39 -43 -45 -67 -69 -87 0
1 -48 -52 -54 -67 -69 -87 0
1 -56 -60 -62 -67 -69 -87 0
1 -7 -10 -12 -73 -75 -87 0
1 -19 -22 -24 -73 -75 -87 0
1 -30 -33 -35 -73 -75 -87 0
1 -40 -43 -45 -73 -75 -87 0
1 -49 -52 -54 -73 -75 -87 0
1 -57 -60 -62 -73 -75 -87 0
1 -64 -67 -69 -73 -75 -87 0
1 -8 -10 -12 -78 -80 -87 0
1 -20 -22 -24 -78 -80 -87 0
1 -31 -33 -35 -78 -80 -87 0
1 -41 -43 -45 -78 -80 -87 0
1 -50 -52 -54 -78 -80 -87 0
1 -58 -60 -62 -78 -80 -87 0
1 -65 -67 -69 -78 -80 -87 0
1 -71 -73 -75 -78 -80 -87 0
1 -9 -10 -12 -82 -84 -87 0
1 -21 -22 -24 -82 -84 -87 0
1 -32 -33 -35 -82 -84 -87 0
1 -42 -43 -45 -82 -84 -87 0
1 -51 -52 -54 -82 -84 -87 0
1 -59 -60 -62 -82 -84 -87 0
1 -66 -67 -69 -82 -84 -87 0
1 -72 -73 -75 -82 -84 -87 0
1 -77 -78 -80 -82 -84 -87 0
1 -1 -11 -12 -23 -24 -89 0
1 -2 -11 -12 -34 -35 -89 0
1 -14 -23 -24 -34 -35 -89 0
1 -3 -11 -12 -44 -45 -89 0
1 -15 -23 -24 -44 -45 -89 0
1 -26 -34 -35 -44 -45 -89 0
1 -4 -11 -12 -53 -54 -89 0
1 -16 -23 -24 -53 -54 -89 0
1 -27 -34 -35 -53 -54 -89 0
1 -37 -44 -45 -53 -54 -89 0
1 -5 -11 -12 -61 -62 -89 0
1 -17 -23 -24 -61 -62 -89 0
1 -28 -34 -35 -61 -62 -89 0
1 -38 -44 -45 -61 -62 -89 0
1 -47 -53 -54 -61 -62 -89 0
1 -6 -11 -12 -68 -69 -89 0
1 -18 -23 -24 -68 -69 -89 0
1 -29 -34 -35 -68 -69 -89 0
1 -39 -44 -45 -68 -69 -89 0
1 -48 -53 -54 -68 -69 -89 0
1 -56 -61 -62 -68 -69 -89 0
1 -7 -11 -12 -74 -75 -89 0
1 -19 -23 -24 -74 -75 -89 0
1 -30 -34 -35 -74 -75 -89 0
1 -40 -44 -45 -74 -75 -89 0
1 -49 -53 -54 -74 -75 -89 0
1 -57 -61 -62 -74 -75 -89 0
1 -64 -68 -69 -74 -75 -89 0
1 -8 -11 -12 -79 -80 -89 0
1 -20 -23 -24 -79 -80 -89 0
1 -31 -34 -35 -79 -80 -89 0
1 -41 -44 -45 -79 -80 -89 0
1 -50 -53 -54 -79 -80 -89 0
1 -58 -61 -62 -79 -80 -89 0
1 -65 -68 -69 -79 -80 -89 0
1 -71 -74 -75 -79 -80 -89 0
1 -9 -11 -12 -83 -84 -89 0
1 -21 -23 -24 -83 -84 -89 0
1 -32 -34 -35 -83 -84 -89 0
1 -42 -44 -45 -83 -84 -89 0
1 -51 -53 -54 -83 -84 -89 0
1 -59 -61 -62 -83 -84 -89 0
1 -66 -68 -69 -83 -84 -89 0
1 -72 -74 -75 -83 -84 -89 0
1 -77 -79 -80 -83 -84 -89 0
1 -10 -11 -12 -86 -87 -89 0
1 -22 -23 -24 -86 -87 -89 0
1 -33 -34 -35 -86 -87 -89 0
1 -43 -44 -45 -86 -87 -89 0
1 -52 -53 -54 -86 -87 -89 0
1 -60 -61 -62 -86 -87 -89 0
1 -67 -68 -69 -86 -87 -89 0
1 -73 -74 -75 -86 -87 -89 0
1 -78 -79 -80 -86 -87 -89 0
1 -82 -83 -84 -86 -87 -89 0
1 -1 -2 -13 -14 -25 -36 0
1 -1 -3 -13 -15 -25 -46 0
1 -2 -3 -13 -26 -36 -46 0
1 -14 -15 -25 -26 -36 -46 0
1 -1 -4 -13 -16 -25 -55 0
1 -2 -4 -13 -27 -36 -55 0
1 -14 -16 -25 -27 -36 -55 0
1 -3 -4 -13 -37 -46 -55 0
1 -15 -16 -25 -37 -46 -55 0
1 -26 -27 -36 -37 -46 -55 0
1 -1 -5 -13 -17 -25 -63 0
1 -2 -5 -13 -28 -36 -63 0
1 -14 -17 -25 -28 -36 -63 0
1 -3 -5 -13 -38 -46 -63 0
1 -15 -17 -25 -38 -46 -63 0
1 -26 -28 -36 -38 -46 -63 0
1 -4 -5 -13 -47 -55 -63 0
1 -16 -17 -25 -47 -55 -63 0
1 -27 -28 -36 -47 -55 -63 0
1 -37 -38 -46 -47 -55 -63 0
1 -1 -6 -13 -18 -25 -70 0
1 -2 -6 -13 -29 -36 -70 0
1 -14 -18 -25 -29 -36 -70 0
1 -3 -6 -13 -39 -46 -70 0
1 -15 -18 -25 -39 -46 -70 0
1 -26 -29 -36 -39 -46 -70 0
1 -4 -6 -13 -48 -55 -70 0
1 -16 -18 -25 -48 -55 -70 0
1 -27 -29 -36 -48 -55 -70 0
1 -37 -39 -46 -48 -55 -70 0
1 -5 -6 -13 -56 -63 -70 0
1 -17 -18 -25 -56 -63 -70 0
1 -28 -29 -36 -56 -63 -70 0
1 -38 -39 -46 -56 -63 -70 0
1 -47 -48 -55 -56 -63 -70 0
1 -1 -7 -13 -19 -25 -76 0
1 -2 -7 -13 -30 -36 -76 0
1 -14 -19 -25 -30 -36 -76 0
1 -3 -7 -13 -40 -46 -76 0
1 -15 -19 -25 -40 -46 -76 0
1 -26 -30 -36 -40 -46 -76 0
1 -4 -7 -13 -49 -55 -76 0
1 -16 -19 -25 -49 -55 -76 0
1 -27 -30 -36 -49 -55 -76 0
1 -37 -40 -46 -49 -55 -76 0
1 -5 -7 -13 -57 -63 -76 0
1 -17 -19 -25 -57 -63 -76 0
1 -28 -30 -36 -57 -63 -76 0
1 -38 -40 -46 -57 -63 -76 0
1 -47 -49 -55 -57 -63 -76 0
1 -6 -7 -13 -64 -70 -76 0
1 -18 -19 -25 -64 -70 -76 0
1 -29 -30 -36 -64 -70 -76 0
1 -39 -40 -46 -64 -70 -76 0
1 -48 -49 -55 -64 -70 -76 0
1 -56 -57 -63 -64 -70 -76 0
1 -1 -8 -13 -20 -25 -81 0
1 -2 -8 -13 -31 -36 -81 0
1 -14 -20 -25 -31 -36 -81 0
1 -3 -8 -13 -41 -46 -81 0
1 -15 -20 -25 -41 -46 -81 0
1 -26 -31 -36 -41 -46 -81 0
1 -4 -8 -13 -50 -55 -81 0
1 -16 -20 -25 -50 -55 -81 0
1 -27 -31 -36 -50 -55 -81 0
1 -37 -41 -46 -50 -55 -81 0
1 -5 -8 -13 -58 -63 -81 0
1 -17 -20 -25 -58 -63 -81 0
1 -28 -31 -36 -58 -63 -81 0
1 -38 -41 -46 -58 -63 -81 0
1 -47 -50 -55 -58 -63 -81 0
1 -6 -8 -13 -65 -70 -81 0
1 -18 -20 -25 -65 -70 -81 0
1 -29 -31 -36 -65 -70 -81 0
1 -39 -41 -46 -65 -70 -81 0
1 -48 -50 -55 -65 -70 -81 0
1 -56 -58 -63 -65 -70 -81 0
1 -7 -8 -13 -71 -76 -81 0
1 -19 -20 -25 -71 -76 -81 0
1 -30 -31 -36 -71 -76 -81 0
1 -40 -41 -46 -71 -76 -81 0
1 -49 -50 -55 -71 -76 -81 0
1 -57 -58 -63 -71 -76 -81 0
1 -64 -65 -70 -71 -76 -81 0
1 -1 -9 -13 -21 -25 -85 0
1 -2 -9 -13 -32 -36 -85 0
1 -14 -21 -25 -32 -36 -85 0
1 -3 -9 -13 -42 -46 -85 0
1 -15 -21 -25 -42 -46 -85 0
1 -26 -32 -36 -42 -46 -85 0
1 -4 -9 -13 -51 -55 -85 0
1 -16 -21 -25 -51 -55 -85 0
1 -27 -32 -36 -51 -55 -85 0
1 -37 -42 -46 -51 -55 -85 0
1 -5 -9 -13 -59 -63 -85 0
1 -17 -21 -25 -59 -63 -85 0
1 -28 -32 -36 -59 -63 -85 0
1 -38 -42 -46 -59 -63 -85 0
1 -47 -51 -55 -59 -63 -85 0
1 -6 -9 -13 -66 -70 -85 0
1 -18 -21 -25 -66 -70 -85 0
1 -29 -32 -36 -66 -70 -85 0
1 -39 -42 -46 -66 -70 -85 0
1 -48 -51 -55 -66 -70 -85 0
1 -56 -59 -63 -66 -70 -85 0
1 -7 -9 -13 -72 -76 -85 0
1 -19 -21 -25 -72 -76 -85 0
1 -30 -32 -36 -72 -76 -85 0
1 -40 -42 -46 -72 -76 -85 0
1 -49 -51 -55 -72 -76 -85 0
1 -57 -59 -63 -72 -76 -85 0
1 -64 -66 -70 -72 -76 -85 0
1 -8 -9 -13 -77 -81 -85 0
1 -20 -21 -25 -77 -81 -85 0
1 -31 -32 -36 -77 -81 -85 0
1 -41 -42 -46 -77 -81 -85 0
1 -50 -51 -55 -77 -81 -85 0
1 -58 -59 -63 -77 -81 -85 0
1 -65 -66 -70 -77 -81 -85 0
1 -71 -72 -76 -77 -81 -85 0
1 -1 -10 -13 -22 -25 -88 0
1 -2 -10 -13 -33 -36 -88 0
1 -14 -22 -25 -33 -36 -88 0
1 -3 -10 -13 -43 -46 -88 0
1 -15 -22 -25 -43 -46 -88 0
1 -26 -33 -36 -43 -46 -88 0
1 -4 -10 -13 -52 -55 -88 0
1 -16 -22 -25 -52 -55 -88 0
1 -27 -33 -36 -52 -55 -88 0
1 -37 -43 -46 -52 -55 -88 0
1 -5 -10 -13 -60 -63 -88 0
1 -17 -22 -25 -60 -63 -88 0
1 -28 -33 -36 -60 -63 -88 0
1 -38 -43 -46 -60 -63 -88 0
1 -47 -52 -55 -60 -63 -88 0
1 -6 -10 -13 -67 -70 -88 0
1 -18 -22 -25 -67 -70 -88 0
1 -29 -33 -36 -67 -70 -88 0
1 -39 -43 -46 -67 -70 -88 0
1 -48 -52 -55 -67 -70 -88 0
1 -56 -60 -63 -67 -70 -88 0
1 -7 -10 -13 -73 -76 -88 0
1 -19 -22 -25 -73 -76 -88 0
1 -30 -33 -36 -73 -76 -88 0
1 -40 -43 -46 -73 -76 -88 0
1 -49 -52 -55 -73 -76 -88 0
1 -57 -60 -63 -73 -76 -88 0
1 -64 -67 -70 -73 -76 -88 0
1 -8 -10 -13 -78 -81 -88 0
1 -20 -22 -25 -78 -81 -88 0
1 -31 -33 -36 -78 -81 -88 0
1 -41 -43 -46 -78 -81 -88 0
1 -50 -52 -55 -78 -81 -88 0
1 -58 -60 -63 -78 -81 -88 0
1 -65 -67 -70 -78 -81 -88 0
1 -71 -73 -76 -78 -81 -88 0
1 -9 -10 -13 -82 -85 -88 0
1 -21 -22 -25 -82 -85 -88 0
1 -32 -33 -36 -82 -85 -88 0
1 -42 -43 -46 -82 -85 -88 0
1 -51 -52 -55 -82 -85 -88 0
1 -59 -60 -63 -82 -85 -88 0
1 -66 -67 -70 -82 -85 -88 0
1 -72 -73 -76 -82 -85 -88 0
1 -77 -78 -81 -82 -85 -88 0
1 -1 -11 -13 -23 -25 -90 0
1 -2 -11 -13 -34 -36 -90 0
1 -14 -23 -25 -34 -36 -90 0
1 -3 -11 -13 -44 -46 -90 0
1 -15 -23 -25 -44 -46 -90 0
1 -26 -34 -36 -44 -46 -90 0
1 -4 -11 -13 -53 -55 -90 0
1 -16 -23 -25 -53 -55 -90 0
1 -27 -34 -36 -53 -55 -90 0
1 -37 -44 -46 -53 -55 -90 0
1 -5 -11 -13 -61 -63 -90 0
1 -17 -23 -25 -61 -63 -90 0
1 -28 -34 -36 -61 -63 -90 0
1 -38 -44 -46 -61 -63 -90 0
1 -47 -53 -55 -61 -63 -90 0
1 -6 -11 -13 -68 -70 -90 0
1 -18 -23 -25 -68 -70 -90 0
1 -29 -34 -36 -68 -70 -90 0
1 -39 -44 -46 -68 -70 -90 0
1 -48 -53 -55 -68 -70 -90 0
1 -56 -61 -63 -68 -70 -90 0
1 -7 -11 -13 -74 -76 -90 0
1 -19 -23 -25 -74 -76 -90 0
1 -30 -34 -36 -74 -76 -90 0
1 -40 -44 -46 -74 -76 -90 0
1 -49 -53 -55 -74 -76 -90 0
1 -57 -61 -63 -74 -76 -90 0
1 -64 -68 -70 -74 -76 -90 0
1 -8 -11 -13 -79 -81 -90 0
1 -20 -23 -25 -79 -81 -90 0
1 -31 -34 -36 -79 -81 -90 0
1 -41 -44 -46 -79 -81 -90 0
1 -50 -53 -55 -79 -81 -90 0
1 -58 -61 -63 -79 -81 -90 0
1 -65 -68 -70 -79 -81 -90 0
1 -71 -74 -76 -79 -81 -90 0
1 -9 -11 -13 -83 -85 -90 0
1 -21 -23 -25 -83 -85 -90 0
1 -32 -34 -36 -83 -85 -90 0
1 -42 -44 -46 -83 -85 -90 0
1 -51 -53 -55 -83 -85 -90 0
1 -59 -61 -63 -83 -85 -90 0
1 -66 -68 -70 -83 -85 -90 0
1 -72 -74 -76 -83 -85 -90 0
1 -77 -79 -81 -83 -85 -90 0
1 -10 -11 -13 -86 -88 -90 0
1 -22 -23 -25 -86 -88 -90 0
1 -33 -34 -36 -86 -88 -90 0
1 -43 -44 -46 -86 -88 -90 0
1 -52 -53 -55 -86 -88 -90 0
1 -60 -61 -63 -86 -88 -90 0
1 -67 -68 -70 -86 -88 -90 0
1 -73 -74 -76 -86 -88 -90 0
1 -78 -79 -81 -86 -88 -90 0
1 -82 -83 -85 -86 -88 -90 0
1 -1 -12 -13 -24 -25 -91 0
1 -2 -12 -13 -35 -36 -91 0
1 -14 -24 -25 -35 -36 -91 0
1 -3 -12 -13 -45 -46 -91 0
1 -15 -24 -25 -45 -46 -91 0
1 -26 -35 -36 -45 -46 -91 0
1 -4 -12 -13 -54 -55 -91 0
1 -16 -24 -25 -54 -55 -91 0
1 -27 -35 -36 -54 -55 -91 0
1 -37 -45 -46 -54 -55 -91 0
1 -5 -12 -13 -62 -63 -91 0
1 -17 -24 -25 -62 -63 -91 0
1 -28 -35 -36 -62 -63 -91 0
1 -38 -45 -46 -62 -63 -91 0
1 -47 -54 -55 -62 -63 -91 0
1 -6 -12 -13 -69 -70 -91 0
1 -18 -24 -25 -69 -70 -91 0
1 -29 -35 -36 -69 -70 -91 0
1 -39 -45 -46 -69 -70 -91 0
1 -48 -54 -55 -69 -70 -91 0
1 -56 -62 -63 -69 -70 -91 0
1 -7 -12 -13 -75 -76 -91 0
1 -19 -24 -25 -75 -76 -91 0
1 -30 -35 -36 -75 -76 -91 0
1 -40 -45 -46 -75 -76 -91 0
1 -49 -54 -55 -75 -76 -91 0
1 -57 -62 -63 -75 -76 -91 0
1 -64 -69 -70 -75 -76 -91 0
1 -8 -12 -13 -80 -81 -91 0
1 -20 -24 -25 -80 -81 -91 0
1 -31 -35 -36 -80 -81 -91 0
1 -41 -45 -46 -80 -81 -91 0
1 -50 -54 -55 -80 -81 -91 0
1 -58 -62 -63 -80 -81 -91 0
1 -65 -69 -70 -80 -81 -91 0
1 -71 -75 -76 -80 -81 -91 0
1 -9 -12 -13 -84 -85 -91 0
1 -21 -24 -25 -84 -85 -91 0
1 -32 -35 -36 -84 -85 -91 0
1 -42 -45 -46 -84 -85 -91 0
1 -51 -54 -55 -84 -85 -91 0
1 -59 -62 -63 -84 -85 -91 0
1 -66 -69 -70 -84 -85 -91 0
1 -72 -75 -76 -84 -85 -91 0
1 -77 -80 -81 -84 -85 -91 0
1 -10 -12 -13 -87 -88 -91 0
1 -22 -24 -25 -87 -88 -91 0
1 -33 -35 -36 -87 -88 -91 0
1 -43 -45 -46 -87 -88 -91 0
1 -52 -54 -55 -87 -88 -91 0
1 -60 -62 -63 -87 -88 -91 0
1 -67 -69 -70 -87 -88 -91 0
1 -73 -75 -76 -87 -88 -91 0
1 -78 -80 -81 -87 -88 -91 0
1 -82 -84 -85 -87 -88 -91 0
1 -11 -12 -13 -89 -90 -91 0
1 -23 -24 -25 -89 -90 -91 0
1 -34 -35 -36 -89 -90 -91 0
1 -44 -45 -46 -89 -90 -91 0
1 -53 -54 -55 -89 -90 -91 0
1 -61 -62 -63 -89 -90 -91 0
1 -68 -69 -70 -89 -90 -91 0
1 -74 -75 -76 -89 -90 -91 0
1 -79 -80 -81 -89 -90 -91 0
1 -83 -84 -85 -89 -90 -91 0
1 -86 -87 -88 -89 -90 -91 0
